r = [
0,9,20,7,19,17,6,19,1,11,2,9,6,27,3,20,11,9,11,27,10,15,14,33,21,6,0
];
p = [
0,8,11,9,15,10,16,16,22,22,26,23,11,5,21,7,6,12,18,4,18,2,1,11,14,25,0
];
e = [
0,12,5,17,20,7,8,15,12,7,13,11,14,18,20,18,10,4,6,14,12,10,2,8,3,19,0
];
d = [
0,376,337,276,280,393,388,362,307,259,315,346,317,298,340,250,297,285,231,252,367,264,264,339,354,340,398
];
d_bar = [
0,380,343,281,288,398,396,370,318,270,328,358,323,301,351,254,300,291,240,254,376,265,265,345,361,353,398
];
w = [
0,3,0.833333333,3.4,2.5,1.4,1,1.875,1.090909091,0.636363636,1,0.916666667,2.333333333,6,1.818181818,4.5,3.333333333,0.666666667,0.666666667,7,1.333333333,10,2,1.333333333,0.428571429,1.461538462,0
];
